Food = {Chicken, Lamb, Beef, Salmon, Okra, Celery, Carrots, Corn, Broccoli};
Cost = [0.99, 4.23, 1.6, 2.99, 0.6, 0.2, 0.53, 0.85, 0.39];
Protein = [25, 25, 5.4, 19.84, 2.0, 0.69, 0.9, 9, 2.8]; 
Fibre = [0, 0, 0, 0, 3.2, 1.6, 2.8, 0, 2.6];
Ome3 = [0, 0, 0.0246, 2.7, 0, 0, 0, 0, 0];
SatFat = [0, 0, 0.0116, 2.1, 1.7, 0.92, 0, 1.02, 0];


